(set-logic QF_SLIA)
(declare-fun var0 () String)
(assert (str.in_re var0 (re.++ ((_ re.loop 20 337) (re.++ (re.union (str.to_re "+") (re.union (str.to_re "I*") (re.union (str.to_re "v&k") (str.to_re "]")))) (re.++ (re.union (str.to_re ";") (re.union (str.to_re ">") (re.union (str.to_re "\\!=") (str.to_re "+")))) (re.++ (re.union (str.to_re "c") (re.union (str.to_re "m") (re.union (str.to_re "!") (str.to_re "^Ut")))) (re.union (str.to_re "w") (re.union (str.to_re "S7") (re.union (str.to_re "8Aq") (str.to_re "_uj")))))))) (re.++ ((_ re.loop 3 515) (re.++ (re.union (str.to_re "K") (re.union (str.to_re "#f") (re.union (str.to_re "c") (str.to_re "7K")))) (re.++ (re.union (str.to_re "N*") (re.union (str.to_re "L\\") (re.union (str.to_re "hS)") (str.to_re ")")))) (re.++ (re.union (str.to_re ";/I") (re.union (str.to_re "6") (re.union (str.to_re "jy") (str.to_re "s!M")))) (re.union (str.to_re "e}") (re.union (str.to_re "My") (re.union (str.to_re ",M]") (str.to_re "v")))))))) (re.++ ((_ re.loop 7 154) (re.++ (re.union (str.to_re "*\\M") (re.union (str.to_re "#Q") (re.union (str.to_re "J") (str.to_re ";")))) (re.++ (re.union (str.to_re "@") (re.union (str.to_re "(u5") (re.union (str.to_re "F\u0022") (str.to_re "]")))) (re.++ (re.union (str.to_re "B^G") (re.union (str.to_re "Ct") (re.union (str.to_re "i") (str.to_re "u)")))) (re.union (str.to_re "`") (re.union (str.to_re "\u0022vt") (re.union (str.to_re "K[*") (str.to_re "Zhv")))))))) ((_ re.loop 10 614) (re.++ (re.union (str.to_re "OAv") (re.union (str.to_re "-(") (re.union (str.to_re "MgM") (str.to_re "G-")))) (re.++ (re.union (str.to_re "x>") (re.union (str.to_re "k4") (re.union (str.to_re "D") (str.to_re "4>")))) (re.++ (re.union (str.to_re "Ox") (re.union (str.to_re "/") (re.union (str.to_re "oT") (str.to_re ",<?")))) (re.union (str.to_re "vw") (re.union (str.to_re "cI") (re.union (str.to_re "s") (str.to_re "sF")))))))))))))
(assert (not (str.in_re var0 (re.++ ((_ re.loop 8 349) (re.++ (re.union (str.to_re "q") (re.union (str.to_re "h") (re.union (str.to_re "d") (str.to_re "z")))) (re.++ (re.union (str.to_re "Z") (re.union (str.to_re "m") (re.union (str.to_re "s") (str.to_re "T")))) (re.++ (re.union (str.to_re "Y;o") (re.union (str.to_re "cW|") (re.union (str.to_re "<") (str.to_re "2nX")))) (re.union (str.to_re "~V?") (re.union (str.to_re "HU") (re.union (str.to_re "9") (str.to_re "c$")))))))) (re.++ ((_ re.loop 13 213) (re.++ (re.union (str.to_re "{}/") (re.union (str.to_re "2") (re.union (str.to_re "8g") (str.to_re "4")))) (re.++ (re.union (str.to_re "p~6") (re.union (str.to_re "V") (re.union (str.to_re "y") (str.to_re "}_")))) (re.++ (re.union (str.to_re "(1w") (re.union (str.to_re "3<") (re.union (str.to_re "e") (str.to_re "n=")))) (re.union (str.to_re "b") (re.union (str.to_re "X0") (re.union (str.to_re "|})") (str.to_re "F")))))))) (re.++ ((_ re.loop 3 84) (re.++ (re.union (str.to_re "TE") (re.union (str.to_re "5W") (re.union (str.to_re "?'") (str.to_re "QR")))) (re.++ (re.union (str.to_re "p") (re.union (str.to_re "4.1") (re.union (str.to_re "uyx") (str.to_re "P")))) (re.++ (re.union (str.to_re "pNY") (re.union (str.to_re ";") (re.union (str.to_re "!E") (str.to_re "ci4")))) (re.union (str.to_re "2]9") (re.union (str.to_re "*") (re.union (str.to_re "c\u0022") (str.to_re "CPa")))))))) ((_ re.loop 16 110) (re.++ (re.union (str.to_re "=") (re.union (str.to_re "}a4") (re.union (str.to_re "6v/") (str.to_re "&g")))) (re.++ (re.union (str.to_re "+") (re.union (str.to_re "&cG") (re.union (str.to_re "W2q") (str.to_re "eQ")))) (re.++ (re.union (str.to_re "[a") (re.union (str.to_re "L\u0022") (re.union (str.to_re "8VL") (str.to_re "[u")))) (re.union (str.to_re "H|[") (re.union (str.to_re "=") (re.union (str.to_re "a") (str.to_re "I;X"))))))))))))))
(assert (not (str.in_re var0 (re.++ (re.* re.allchar) (re.++ (re.union (str.to_re "<") (re.union (str.to_re ">") (re.union (str.to_re "'") (re.union (str.to_re "\u0022") (str.to_re "&"))))) (re.* re.allchar))))))
(assert (<= 50 (str.len var0)))
(check-sat)
(get-model)
